(declare-fun ExpandObjSwitcher () Real)
(declare-fun Constructed_Argument_t () String)
(declare-fun Constructed_Argument_2_t () String)
(declare-fun CreateAsClass () Bool)
(declare-fun Constructed_Argument () String)
(declare-fun IsMatch_/&/_0 () Bool)
(declare-fun |IsMatch_/BS+/_1| () Bool)
(declare-fun |IsMatch_/BS+/_2| () Bool)
(declare-fun |IsMatch_/BS+/_3| () Bool)
(assert (= ExpandObjSwitcher 0.0))
(assert (= Constructed_Argument_t "string"))
(assert (not (= Constructed_Argument_2_t "string")))
(assert (not (= Constructed_Argument_2_t "number")))
(assert (not (= Constructed_Argument_2_t "boolean")))
(assert (not (= Constructed_Argument_2_t "object")))
(assert (not (= Constructed_Argument_2_t "array_number")))
(assert (not (= Constructed_Argument_2_t "array_string")))
(assert (not (= Constructed_Argument_2_t "array_bool")))
(assert (not (= Constructed_Argument_2_t "null")))
(assert (not CreateAsClass))
(assert (not (= Constructed_Argument "")))
(assert (not (str.in.re (ite (<= (str.len Constructed_Argument) 0) "" Constructed_Argument) (re.++ (re.* (re.range "\x00" "\xff")) (str.to.re "&") (re.* (re.range "\x00" "\xff"))))))
(assert (not IsMatch_/&/_0))
(assert (not (= (to_real (str.indexof (ite (<= (str.len Constructed_Argument) 0) "" Constructed_Argument) "]=" 0)) (- 1.0))))
(assert (not (= (to_real (str.indexof (ite (<= (str.len Constructed_Argument) 0) "" Constructed_Argument) "]=" 0)) (- 2.0))))
(assert (not (str.in.re (str.substr (ite (<= (str.len Constructed_Argument) 0) "" Constructed_Argument) 0 (to_int (ite (>= (to_real (str.indexof (ite (<= (str.len Constructed_Argument) 0) "" Constructed_Argument) "]=" 0)) (- 1.0)) (+ 1.0 (to_real (str.indexof (ite (<= (str.len Constructed_Argument) 0) "" Constructed_Argument) "]=" 0))) (+ 1.0 (to_real (str.indexof (ite (<= (str.len Constructed_Argument) 0) "" Constructed_Argument) "]=" 0)) (to_real (str.len (ite (<= (str.len Constructed_Argument) 0) "" Constructed_Argument))))))) (re.++ (re.* (re.range "\x00" "\xff")) (str.to.re "+") (re.* (re.range "\x00" "\xff"))))))
(assert (not |IsMatch_/BS+/_1|))
(assert |IsMatch_/BS+/_2|)
(assert (= (str.in.re (str.++ (ite (<= (+ (str.len |2 Fill 1|) (str.len |2 Fill 2|)) (- 1)) "" (str.substr (str.++ |2 Fill 1| "+" |2 Fill 2|) 0 (ite (<= (str.len |2 Fill 2|) (- 1)) (+ 1 (str.len |2 Fill 1|) (str.len |2 Fill 2|)) (str.len |2 Fill 1|)))) " " (ite (<= (+ (str.len |2 Fill 1|) (str.len |2 Fill 2|) (* (- 1) (ite (>= (str.len |2 Fill 1|) (- 1)) (+ 1 (str.len |2 Fill 1|)) (ite (>= (+ (* 2 (str.len |2 Fill 1|)) (str.len |2 Fill 2|)) (- 2)) (+ 2 (* 2 (str.len |2 Fill 1|)) (str.len |2 Fill 2|)) 0)))) (- 1)) "" (str.substr (str.++ |2 Fill 1| "+" |2 Fill 2|) (ite (>= (str.len |2 Fill 1|) (- 1)) (+ 1 (str.len |2 Fill 1|)) (ite (>= (+ (* 2 (str.len |2 Fill 1|)) (str.len |2 Fill 2|)) (- 2)) (+ 2 (* 2 (str.len |2 Fill 1|)) (str.len |2 Fill 2|)) 0)) (+ 1 (str.len |2 Fill 1|) (str.len |2 Fill 2|) (* (- 1) (ite (>= (str.len |2 Fill 1|) (- 1)) (+ 1 (str.len |2 Fill 1|)) (ite (>= (+ (* 2 (str.len |2 Fill 1|)) (str.len |2 Fill 2|)) (- 2)) (+ 2 (* 2 (str.len |2 Fill 1|)) (str.len |2 Fill 2|)) 0))))))) (re.++ (re.* (re.range "\x00" "\xff")) (str.to.re "+") (re.* (re.range "\x00" "\xff")))) |IsMatch_/BS+/_3|))
(assert (not |IsMatch_/BS+/_3|))
(assert (not (<= (to_real (str.indexof (ite (<= (str.len Constructed_Argument) 0) "" Constructed_Argument) "[]=" 0)) (- 1.0))))
(check-sat)
